certificates/rado_a10_c78_N19.drat
8 -18 0
9 17 -8 0
-8 -19 0
-15 -19 0
-19 0
9 0
5 7 0
d 5 13 7 0
-17 0
8 0
-6 0
-10 0
-11 0
-7 0
1 0
14 0
18 0
2 0
0
